10J3M/DAT/10J3MNNX-19.dat
10 3
13.8204 3.7176
31.467 5.6095
18.1471 4.2599
28.1072 5.3016
26.6486 5.1622
17.7727 4.2158
29.0085 5.386
22.7192 4.7665
19.8717 4.4578
27.2621 5.2213
48.0982