10J3M/SOL/10J3MNNX-19.sol
solution status: optimal solution found
objective value:                     77.0303333333333
x#1#2                                               1 	(obj:0)
x#2#1                                               1 	(obj:0)
x#3#2                               0.258060601210958 	(obj:0)
x#3#3                               0.741939398789042 	(obj:0)
x#4#3                                               1 	(obj:0)
x#5#3                                               1 	(obj:0)
x#6#2                                               1 	(obj:0)
x#7#1                                               1 	(obj:0)
x#8#1                                               1 	(obj:0)
x#9#1                                               1 	(obj:0)
x#10#1                             0.0658276406171752 	(obj:0)
x#10#2                              0.934172359382825 	(obj:0)
z                                    77.0303333333333 	(obj:1)
